c SAT Problem 02 - Graph Coloring Instance
c A satisfiable 3-coloring problem for a small graph
c Variables represent color assignments for vertices
p cnf 28 65
1 2 3 0
-1 -2 0
-1 -3 0
-2 -3 0
4 5 6 0
-4 -5 0
-4 -6 0
-5 -6 0
7 8 9 0
-7 -8 0
-7 -9 0
-8 -9 0
10 11 12 0
-10 -11 0
-10 -12 0
-11 -12 0
13 14 15 0
-13 -14 0
-13 -15 0
-14 -15 0
16 17 18 0
-16 -17 0
-16 -18 0
-17 -18 0
19 20 21 0
-19 -20 0
-19 -21 0
-20 -21 0
22 23 24 0
-22 -23 0
-22 -24 0
-23 -24 0
25 26 27 0
-25 -26 0
-25 -27 0
-26 -27 0
-1 -4 0
-2 -5 0
-3 -6 0
-4 -7 0
-5 -8 0
-6 -9 0
-7 -10 0
-8 -11 0
-9 -12 0
-10 -13 0
-11 -14 0
-12 -15 0
-13 -16 0
-14 -17 0
-15 -18 0
-16 -19 0
-17 -20 0
-18 -21 0
-19 -22 0
-20 -23 0
-21 -24 0
-22 -25 0
-23 -26 0
-24 -27 0
1 7 13 0
2 8 14 0
3 9 15 0
4 10 16 0
5 11 17 0
6 12 18 0
28 -28 0